language ESSENCE' 1.0
$ minion Nodes: 1
$ minion TotalTime: 0.000374
$ Savile Row TotalTime: 0.155
letting y_tuple1_tuple3 be [12, 13;int(1,2)]
letting y_tuple1_tuple1 be [10, 11;int(1,2)]
letting y_tuple1_tuple2_tuple2 be [64, 64;int(1,2)]
letting y_tuple1_tuple2_tuple1 be [43, 43;int(1,2)]
